
        $ From http://www.csplib.org/Problems/prob009/data/helmut.pdf
        $ Problem number 174
        $ Sequence length : 25
        language ESSENCE' 1.0
        letting sizemaster be 547
        letting sizes be sequence(3,5,16,22,26,27,35,47,49,59,67,71,72,85,87,102,103,111,137,144,150,197,200,203,207)
        